10	5
0	4	3	4	1	2
1	1	7
2	1	9
3	1	6
4	1	9
5	1	9
6	1	5
7	1	8
8	1	10
9	1	7
10	1	11
11	0
0	0	0	0	0	0	0
1	1	3	0	3	1	0
2	6	0	0	0	2	0
3	2	4	1	0	0	3
4	1	0	0	0	0	4
5	10	0	0	1	0	5
6	3	4	2	4	1	0
7	6	3	0	0	5	0
8	6	0	0	3	0	0
9	4	5	1	5	5	1
10	5	0	0	4	2	2
11	0	0	0	0	0	0
5	5	5	5	5
